%nproc=24
%mem=64GB
#P PBE1PBE/6-31+G(d,p) opt freq  int=(grid=99590) scrf=(cpcm, solvent=water) EmpiricalDispersion=GD3

solv sp

0 1
N	5.3554540	-1.4012430	-0.5781070
H	5.2219250	-0.4272730	-0.3068740
C	3.1341390	-1.6550320	0.3656180
C	4.3262990	-2.2599030	-0.3917940
O	4.3113120	-3.4442560	-0.7459610
N	1.9526440	-2.4247100	0.0031280
H	2.1370130	-3.3871670	-0.2678280
C	0.7207090	-1.8929730	-0.0867530
O	0.4759580	-0.6971690	0.1555310
C	-0.3916670	-2.8573410	-0.5282620
N	-1.6521850	-2.2727930	-0.1094460
H	-1.6280830	-1.2694670	0.0400570
C	-2.7428560	-3.0239890	0.2110570
O	-2.7621370	-4.2508870	0.1285250
H	2.9884430	-0.6191600	0.0577010
H	-0.2737610	-3.8189830	-0.0161040
C	-3.9507950	-2.2427530	0.7533180
C	3.3933620	-1.6941550	1.8842680
H	3.6057940	-2.7170030	2.2137380
H	4.2455060	-1.0566210	2.1392240
H	2.5121880	-1.3282560	2.4199040
C	-0.3384970	-3.0947820	-2.0518030
H	-0.4501810	-2.1473670	-2.5894750
H	0.6078130	-3.5599830	-2.3493570
H	-1.1565060	-3.7624470	-2.3367080
C	1.9125740	2.1592900	0.8152490
N	3.0781250	3.0047070	0.5897820
H	2.8959460	4.0028890	0.6047450
C	4.3074670	2.5220340	0.3003570
O	4.5501180	1.3068250	0.2268610
C	5.3948770	3.5558000	0.0661490
C	0.6887590	2.9492220	0.3341290
O	0.6551730	4.1820690	0.4291010
N	-0.3290330	2.2034590	-0.1572260
H	-0.2150650	1.1943310	-0.2598420
C	-1.5621950	2.8320150	-0.6193250
C	-2.6097620	1.7387740	-0.8326160
O	-2.3251000	0.6983090	-1.4421360
N	-3.8580850	2.0053230	-0.3762940
H	-4.0062390	2.8334000	0.1865890
H	2.0231530	1.2447700	0.2314930
H	-1.8905870	3.5436130	0.1484550
C	-5.0278000	1.1637390	-0.6728930
C	1.7473590	1.7863350	2.3009990
H	1.5725540	2.6821610	2.9064790
H	0.9052030	1.0988140	2.4260750
H	2.6549120	1.2903020	2.6572720
C	-1.3708000	3.5928590	-1.9484590
H	-0.6074450	4.3627880	-1.8154840
H	-1.0591160	2.8985900	-2.7344000
H	-2.3056900	4.0757680	-2.2552550
H	5.0390860	4.5867590	0.1499530
C	-5.0989320	-0.0775920	0.2648100
O	-5.9885510	-0.2099030	1.1023980
N	-4.1018330	-0.9729030	0.0380670
H	-3.4597210	-0.7443780	-0.7188490
H	6.1969620	3.3921160	0.7927750
H	5.8162520	3.4002600	-0.9319440
C	6.5987260	-1.8007530	-1.2155980
H	6.5691450	-2.8798770	-1.3785940
H	6.7268080	-1.3009670	-2.1840200
H	7.4566340	-1.5557380	-0.5783850
C	-3.7856010	-2.0573000	2.2749930
H	-4.6741490	-1.5753930	2.6875340
H	-3.6556740	-3.0361270	2.7476070
H	-2.9083650	-1.4395860	2.4981100
H	-4.8263700	-2.8741270	0.5686760
H	-4.8897520	0.7962270	-1.6969690
C	-6.3017760	1.9961990	-0.5758560
H	-6.2578800	2.8453280	-1.2663560
H	-7.1698860	1.3815730	-0.8255290
H	-6.4521950	2.3592890	0.4461830


