%nproc=24
%mem=64GB
#P PBE1PBE/6-31+G(d,p) opt int=(grid=99590) freq EmpiricalDispersion=GD3

solv sp

0 1
  C	5.4968620	-0.6324170	0.0516190
  N	4.2832810	0.1235180	-0.2077640
  H	4.4351970	1.0245820	-0.6540530
  C	3.0698590	-0.2569780	0.2481760
  O	2.8740470	-1.3109700	0.8637710
  C	1.9193730	0.7255220	-0.0393500
  N	0.6930550	0.0168360	0.2846010
  H	0.8327040	-0.8556360	0.7883290
  C	6.6666240	0.3364660	-0.1991920
  O	6.4867400	1.4378860	-0.7310370
  N	7.8819970	-0.1090860	0.1891440
  H	8.0225370	-1.0426540	0.5668460
  C	9.1052360	0.6336140	-0.0580650
  C	10.2553430	-0.3870320	0.0363860
  O	10.0777020	-1.5043560	0.5251840
  N	11.4525610	0.0496060	-0.4362850
  H	11.4997460	0.9761490	-0.8376240
  H	5.5022970	-0.9457780	1.1031420
  H	9.0622830	1.0523650	-1.0714910
  C	-1.6800790	-0.5577660	0.1646480
  N	-2.8974310	0.1413950	-0.2090360
  H	-2.7481790	0.9774210	-0.7684900
  C	-4.1142320	-0.1907450	0.2764670
  O	-4.3083200	-1.1601700	1.0184690
  C	-5.2669340	0.7386810	-0.1445400
  N	-6.4955540	0.0616430	0.2305340
  H	-6.3675080	-0.7425240	0.8391010
  C	-7.6971950	0.3669160	-0.3114700
  O	-7.8619250	1.2970520	-1.1089850
  C	-0.5165020	0.3866170	-0.1899840
  O	-0.6983710	1.4009820	-0.8730350
  H	-1.6903540	-0.7342820	1.2475030
  H	-5.2532540	0.8699240	-1.2337210
  C	12.6657050	-0.7547350	-0.3884080
  H	12.4131560	-1.7097140	0.0754760
  H	13.0536540	-0.9396250	-1.3967840
  H	13.4414370	-0.2610970	0.2084990
  C	-8.8604520	-0.5425260	0.1187990
  H	-8.8722340	-0.6328380	1.2123850
  H	-9.9515130	0.8920330	-0.9445290
  C	-11.2992310	-0.1971450	0.2198880
  C	-12.4682940	0.6275010	-0.3000730
  H	-12.1762290	1.3851140	-1.0340310
  H	-13.1994840	-0.0492180	-0.7533450
  H	-12.9551700	1.1162030	0.5496110
  O	-11.4516330	-1.0864790	1.0595290
  N	-10.0824210	0.1119620	-0.3088230
  C	-8.7156970	-1.9551990	-0.4853110
  H	-8.6494750	-1.9007410	-1.5773100
  H	-7.8215050	-2.4619330	-0.1056380
  H	-9.5917730	-2.5474790	-0.2091250
  C	-5.1409210	2.1247340	0.5202660
  H	-5.1002470	2.0256620	1.6102370
  H	-4.2386810	2.6468740	0.1833480
  H	-6.0102540	2.7294470	0.2495360
  C	-1.5451290	-1.9147830	-0.5553250
  H	-1.4811420	-1.7704730	-1.6390960
  H	-0.6520530	-2.4545850	-0.2221600
  H	-2.4212850	-2.5273860	-0.3281110
  C	2.0703050	2.0270750	0.7736530
  H	2.1235650	1.8072070	1.8451970
  H	2.9745140	2.5739120	0.4846660
  H	1.2059740	2.6687140	0.5840430
  C	5.6007040	-1.8877820	-0.8380640
  H	5.6423050	-1.6072640	-1.8958680
  H	6.4944270	-2.4736170	-0.5971930
  H	4.7230750	-2.5170890	-0.6703050
  C	9.2947320	1.7873870	0.9478220
  H	8.4283350	2.4520250	0.8979870
  H	9.3877160	1.3973020	1.9666800
  H	10.1908190	2.3748380	0.7180590
  H	1.9117950	0.9770770	-1.1071990

