%nproc=24
%mem=64GB
#P PBE1PBE/6-31+G(d,p) opt=(maxstep=10) int=(grid=99590) freq EmpiricalDispersion=GD3

solv sp

0 1
C                5.464554           -0.638517            0.005756
N                4.258125            0.109360           -0.258631
H                4.401821            1.009503           -0.704352
C                3.055906           -0.282714            0.193235
O                2.877756           -1.335482            0.805411
C                1.902823            0.686981           -0.072265
N                0.686641           -0.022684            0.246157
H                0.819562           -0.893674            0.749613
C                6.631324            0.327057           -0.207526
O                6.466682            1.422284           -0.744830
N                7.831660           -0.113019            0.204224
H                7.966780           -1.040678            0.592307
C                9.043889            0.636852           -0.022066
C               10.202132           -0.358635            0.084987
O               10.037291           -1.469427            0.580206
N               11.392150            0.092199           -0.364878
H               11.431800            1.013224           -0.772636
H                5.449551           -0.962714            1.054859
H                9.004480            1.052433           -1.038005
C               -1.677246           -0.576867            0.104832
N               -2.884587            0.127391           -0.255612
H               -2.742236            0.961325           -0.815764
C               -4.086916           -0.204259            0.243580
O               -4.262656           -1.169029            0.987209
C               -5.239983            0.721789           -0.146091
N               -6.458724            0.057574            0.247743
H               -6.335133           -0.740170            0.861827
C               -7.652885            0.373055           -0.284350
O               -7.803957            1.292776           -1.088326
C               -0.511188            0.355535           -0.228513
O               -0.675899            1.368576           -0.908143
H               -1.694536           -0.764682            1.186610
H               -5.252083            0.849735           -1.236614
C               12.609805           -0.685096           -0.287768
H               12.366218           -1.641239            0.176832
H               13.019878           -0.869897           -1.285349
H               13.362601           -0.174785            0.321069
C               -8.819487           -0.513882            0.148392
H               -8.835302           -0.588339            1.244106
H               -9.904749            0.904802           -0.929922
C              -11.234604           -0.158891            0.265128
C              -12.409679            0.640271           -0.247995
H              -12.139585            1.386347           -0.999769
H              -13.140570           -0.051357           -0.675026
H              -12.887187            1.138510            0.599627
O              -11.368941           -1.029922            1.119695
N              -10.031122            0.138820           -0.279802
C               -8.690275           -1.924911           -0.435326
H               -8.652223           -1.881310           -1.528142
H               -7.787862           -2.427312           -0.073500
H               -9.559623           -2.511302           -0.129436
C               -5.099169            2.098427            0.510474
H               -5.064362            1.997925            1.599466
H               -4.190501            2.608926            0.177282
H               -5.960651            2.711049            0.235290
C               -1.553823           -1.915973           -0.627585
H               -1.511642           -1.755146           -1.709034
H               -0.654533           -2.457786           -0.319692
H               -2.424927           -2.530986           -0.390898
C                2.047896            1.972188            0.747433
H                2.093900            1.738816            1.815394
H                2.952573            2.521801            0.470772
H                1.183840            2.613080            0.558145
C                5.582889           -1.873185           -0.892089
H                5.625092           -1.575817           -1.944176
H                6.480094           -2.453357           -0.656842
H                4.709920           -2.510542           -0.735012
C                9.197271            1.786367            0.978279
H                8.331096            2.446766            0.895754
H                9.255853            1.396719            1.998770
H               10.098334            2.374265            0.778125
H                1.883684            0.946630           -1.138986

