%nproc=24
%mem=64GB
#P PBE1PBE/6-31+G(d,p) opt int=(grid=99590) freq EmpiricalDispersion=GD3

solv sp

0 1
C	-5.6655440	-2.7697220	0.6201750
N	-4.4150570	-2.1926310	0.1373620
H	-4.3645820	-1.1782110	0.0173720
C	-3.3021160	-2.9349310	-0.0406430
O	-3.2343140	-4.1520510	0.1931580
C	-2.1100510	-2.1764610	-0.6385650
N	-0.8701620	-2.6902300	-0.0667200
H	-0.7801140	-3.7013300	0.0622260
C	-6.8386720	-2.0742180	-0.0819070
O	-6.8574110	-0.8359960	-0.2112630
N	-7.8337800	-2.8862600	-0.4848110
H	-7.7098140	-3.9027270	-0.4133540
C	-9.0471700	-2.3815990	-1.1212080
C	-10.2574810	-3.1426950	-0.5594850
O	-10.2893600	-4.3827420	-0.5525650
N	-11.2719100	-2.3690870	-0.1255250
H	-11.1553880	-1.3536130	-0.1152370
H	-5.6652200	-3.8315390	0.3721440
H	-9.1315900	-1.3214000	-0.8777100
C	2.3310430	-6.6800370	0.8604860
C	3.5219170	-7.5023950	0.3542330
O	3.4277320	-8.7237430	0.1794710
N	4.6543450	-6.7890580	0.1656950
H	4.6303260	-5.7693130	0.2309970
C	5.8947720	-7.4206290	-0.2515220
C	7.0535350	-6.5197290	0.1886510
O	6.9129110	-5.2889290	0.2686420
N	8.2186080	-7.1458120	0.4386220
H	8.3216140	-8.1481800	0.3055330
N	1.1187310	-7.3784060	0.4580110
H	1.2183110	-8.3796350	0.3161930
C	-0.0223590	-6.7312430	0.1529140
O	-0.1493390	-5.5015980	0.2641590
C	-1.1587580	-7.5997790	-0.3925840
N	-2.4201400	-7.0144630	0.0302950
H	-2.4745450	-5.9987950	0.1294830
H	2.3398370	-5.6943030	0.3936620
H	5.9620700	-8.3941700	0.2460920
H	-1.1016040	-8.6087510	0.0296500
C	1.3992540	-2.5774860	0.8178260
N	2.6177700	-1.9938510	0.2670000
H	2.6481950	-0.9811350	0.1242890
C	3.7320940	-2.7245490	0.0514670
O	3.8218250	-3.9377730	0.3000310
C	4.8882860	-1.9636350	-0.6077800
N	6.1601660	-2.4747480	-0.1079890
H	6.2609460	-3.4832760	0.0296520
C	7.2260260	-1.6683940	0.0644830
O	7.2009270	-0.4445240	-0.1565960
C	0.1836630	-1.8893720	0.1837960
O	0.1837440	-0.6631880	-0.0260250
H	1.3888540	-3.6401200	0.5706920
H	4.8239720	-0.9056210	-0.3508010
C	-4.7696470	-7.0115940	0.6581860
C	-3.5424560	-7.7660660	0.1353830
O	-3.5950980	-8.9748340	-0.1173170
N	-5.9497540	-7.5775800	0.0172690
H	-5.9358520	-8.5786330	-0.1477780
C	-6.9866560	-6.8216050	-0.3960340
O	-7.0228850	-5.5918340	-0.2264720
C	-8.1227690	-7.5506060	-1.1263360
N	-9.3970720	-7.1729690	-0.5433600
H	-9.6697670	-6.1903600	-0.5797750
C	-10.1303250	-8.0520680	0.2037230
O	-9.8020270	-9.2271370	0.3830110
H	-4.7074710	-5.9582360	0.3821930
H	-8.0273840	-8.6311000	-0.9850580
C	-11.4130060	-7.4772530	0.7876120
H	-11.5289350	-6.4088990	0.5851850
H	-12.2622280	-8.0268190	0.3679500
H	-11.4108910	-7.6529780	1.8679240
C	-12.5039020	-2.9440930	0.3900600
H	-12.8029940	-3.8001990	-0.2217130
H	-12.3873580	-3.2926770	1.4245880
H	-13.2898410	-2.1844650	0.3602600
C	9.4553990	-6.4304300	0.7229460
H	9.3956580	-5.4381200	0.2754580
C	8.4860220	-2.3423760	0.6195710
H	8.4722630	-3.4039520	0.3691740
H	9.6884640	-0.7328380	-0.1300370
C	10.7692790	-2.4718590	-0.2852010
C	11.9262960	-1.7137160	-0.9090310
H	11.7412790	-0.6394690	-0.9693350
H	12.8268110	-1.9068500	-0.3171440
H	12.0999330	-2.1180620	-1.9123310
O	10.8479930	-3.6959160	-0.0706430
N	9.6641240	-1.7468310	0.0002390
C	10.5998170	-7.2272220	0.0797280
H	11.5630410	-5.4566290	-0.2342690
C	12.8626650	-7.0482100	-0.8653840
H	13.7531040	-6.7264970	-0.3121000
H	12.7813660	-8.1358290	-0.8140480
H	12.9777770	-6.7525260	-1.9160150
O	10.5211170	-8.4559120	-0.0417050
N	11.6617340	-6.4723890	-0.2855430
C	9.6937920	-6.2784560	2.2369560
H	8.8482010	-5.7534560	2.6928730
H	9.8003240	-7.2585480	2.7144490
H	10.6028200	-5.6965740	2.4191530
C	8.5094700	-2.1968680	2.1552120
H	8.5122380	-1.1400290	2.4443680
H	7.6339110	-2.6799650	2.6020210
H	9.4107090	-2.6735280	2.5528730
C	4.7840920	-2.1111130	-2.1399410
H	4.8338550	-3.1660590	-2.4305950
H	3.8408330	-1.6899690	-2.5031890
H	5.6107930	-1.5748980	-2.6162600
C	5.9530600	-7.6433520	-1.7780930
H	5.1075480	-8.2666970	-2.0817770
H	5.8991270	-6.6852820	-2.3059380
H	6.8808820	-8.1499070	-2.0659620
C	2.4123590	-6.5013250	2.3888460
H	1.5294870	-5.9591210	2.7415860
H	2.4540670	-7.4731360	2.8927330
H	3.3035710	-5.9248300	2.6554070
C	1.3335510	-2.4217740	2.3505780
H	1.3314500	-1.3628700	2.6315440
H	0.4267330	-2.8912250	2.7466420
H	2.2031190	-2.9062200	2.8052300
C	-1.0465200	-7.7038080	-1.9287100
H	-1.8750240	-8.3091500	-2.3065140
H	-1.0933170	-6.7088030	-2.3839670
H	-0.1044200	-8.1801130	-2.2224780
C	-2.1290940	-2.3309300	-2.1731190
H	-2.0638000	-3.3873460	-2.4550460
H	-3.0516640	-1.9133460	-2.5899420
H	-1.2780000	-1.7964040	-2.6066660
C	-4.8436320	-7.1299890	2.1926020
H	-4.8901700	-8.1808410	2.4976960
H	-3.9635740	-6.6691820	2.6535930
H	-5.7384790	-6.6172410	2.5593370
C	-5.8174850	-2.6093670	2.1454430
H	-5.8269950	-1.5500740	2.4245410
H	-6.7500290	-3.0702710	2.4885680
H	-4.9808330	-3.1016300	2.6509600
C	-8.0635720	-7.2039800	-2.6237810
H	-8.1975550	-6.1270900	-2.7715620
H	-7.0990540	-7.4940240	-3.0559320
H	-8.8597620	-7.7329540	-3.1565630
C	-8.9951060	-2.5542920	-2.6498380
H	-8.1294840	-2.0204650	-3.0549460
H	-8.9141140	-3.6138120	-2.9134960
H	-9.9024140	-2.1507890	-3.1133200
C	-5.9362580	6.6854540	0.9753690
N	-4.7058160	7.3745510	0.6090240
H	-4.7797310	8.3799480	0.4905050
C	-3.5675700	6.7193750	0.2966240
O	-3.4519630	5.4879620	0.3772620
C	-2.4193720	7.5936450	-0.2172640
N	-1.1667850	6.9586760	0.1548530
H	-1.1360550	5.9379970	0.2104430
C	-7.1030700	7.4326910	0.3179630
O	-7.0916030	8.6644240	0.2096630
N	-8.1167570	6.6281790	-0.0827050
H	-8.0011370	5.6122070	-0.0139500
C	-9.3469160	7.1475330	-0.6579650
C	-10.5254530	6.5617780	0.1341720
O	-10.7055990	5.3404990	0.2026910
N	-11.3389200	7.4713530	0.7299310
H	-11.0818160	8.4467520	0.6626260
H	-5.8822270	5.6661230	0.5924180
H	-2.4499300	8.5790630	0.2601290
H	-9.3056620	8.2355910	-0.5492210
C	2.0664710	2.7451150	0.7542320
C	3.2643570	2.0572580	0.0873920
O	3.2705520	0.8284850	-0.0934050
N	4.2963910	2.8662540	-0.2251490
H	4.1994600	3.8778200	-0.1116030
C	5.5284430	2.3560250	-0.8181050
C	6.7208530	3.1067080	-0.2136080
O	6.6877820	4.3401700	-0.0655520
N	7.7894210	2.3414910	0.0843300
H	7.7206970	1.3234120	-0.0147870
N	0.8349280	2.1609210	0.2343160
H	0.7926290	1.1440670	0.1174800
C	-0.2744210	2.8960670	0.0186540
O	-0.3518920	4.1165070	0.2418420
C	-1.4476260	2.1324920	-0.6042540
N	-2.7003380	2.6513230	-0.0651610
H	-2.7825010	3.6574900	0.0924920
H	2.0670400	3.8078400	0.5074900
H	5.6007880	1.2935310	-0.5818920
H	-1.3773190	1.0753250	-0.3437310
C	1.1840970	6.8514020	0.7502080
N	2.3793300	7.5587820	0.3128940
H	2.2691020	8.5591580	0.1732440
C	3.5140240	6.9153390	-0.0233860
O	3.6472150	5.6871490	0.0862030
C	4.6323220	7.7866880	-0.6031430
N	5.9050020	7.1539130	-0.2970130
H	5.9332080	6.1359080	-0.1965120
C	7.0519240	7.8669360	-0.2605190
O	7.1209920	9.0837410	-0.4799920
C	-0.0270090	7.6728870	0.2944310
O	0.0579320	8.8943140	0.1153530
H	1.1621300	5.8704710	0.2732240
H	4.6240310	8.7748500	-0.1303720
C	-4.9940220	2.5299330	0.7554210
C	-3.7684000	1.8517340	0.1316910
O	-3.7691840	0.6351430	-0.1156840
N	-6.2061160	1.9441440	0.1930220
H	-6.2432940	0.9277210	0.0590040
C	-7.3039470	2.6799920	-0.0585500
O	-7.3764510	3.9046300	0.1564090
C	-8.4727230	1.9277460	-0.7007090
N	-9.7299060	2.4508910	-0.1781570
H	-9.8271770	3.4573680	-0.0451680
C	-10.7971470	1.6488690	0.0396520
O	-10.7687040	0.4237120	-0.1686510
H	-4.9870370	3.5935760	0.5131750
H	-8.4145120	0.8705260	-0.4397290
C	-12.0466590	2.3229750	0.5748840
H	-11.9501200	3.4092250	0.6258190
H	-12.8901050	2.0523040	-0.0680520
H	-12.2524420	1.9226840	1.5736530
C	-12.5000280	7.1095680	1.5304460
H	-12.6338130	6.0289840	1.4592730
H	-12.3538610	7.3802770	2.5828320
H	-13.4003580	7.6088210	1.1552450
C	9.0321410	2.8988740	0.6067970
H	8.9817390	3.9814680	0.4771480
C	8.3018870	7.0621810	0.1255590
H	8.2839680	6.0913100	-0.3745370
H	9.2696380	8.8048040	-0.5196620
C	10.6406250	7.2544630	-0.6334330
C	11.7216040	8.1849500	-1.1537530
H	11.3985270	9.2278470	-1.2201170
H	12.5910130	8.1182070	-0.4922630
H	12.0330570	7.8408850	-2.1451550
O	10.8577750	6.0402120	-0.4886110
N	9.4517560	7.8209770	-0.3434040
C	10.2112950	2.3257730	-0.1917080
H	10.9269530	4.2265620	-0.5332780
C	12.2869250	2.8175950	-1.3849110
H	12.8870700	3.7069570	-1.5905870
H	12.8804360	2.1096780	-0.7957410
H	12.0271220	2.3313820	-2.3328770
O	10.3363480	1.1003590	-0.3526570
N	11.0953720	3.2264770	-0.6569210
C	9.2143320	2.5679540	2.0988730
H	8.3768660	2.9722100	2.6761980
H	9.2567120	1.4840010	2.2470560
H	10.1441870	3.0049810	2.4797300
C	8.3437020	6.8318570	1.6493430
H	8.2829800	7.7844920	2.1868100
H	7.5113200	6.1926750	1.9574550
H	9.2818410	6.3365950	1.9184770
C	4.4220850	7.9679330	-2.1221750
H	4.4089460	6.9952670	-2.6253040
H	3.4775390	8.4825850	-2.3302470
H	5.2415820	8.5679940	-2.5268800
C	5.5375080	2.5359400	-2.3486260
H	4.6874050	2.0035050	-2.7865470
H	5.4656570	3.5963700	-2.6127930
H	6.4597980	2.1294700	-2.7775950
C	2.1720750	2.5848240	2.2838610
H	1.3169780	3.0706720	2.7639280
H	2.1778780	1.5251100	2.5606350
H	3.0914080	3.0489270	2.6570210
C	1.1568450	6.6557030	2.2785120
H	1.1240590	7.6216820	2.7941670
H	0.2809160	6.0676270	2.5689630
H	2.0560520	6.1179160	2.5945940
C	-1.3888900	2.2718650	-2.1392230
H	-2.2297640	1.7335280	-2.5872480
H	-1.4447570	3.3252930	-2.4344130
H	-0.4578420	1.8463290	-2.5280690
C	-2.5481500	7.7824170	-1.7442140
H	-2.5264690	6.8125820	-2.2523150
H	-3.4838750	8.2915680	-2.0006690
H	-1.7124410	8.3907120	-2.1009040
C	-4.9436110	2.3666580	2.2881880
H	-4.9384820	1.3064560	2.5636550
H	-4.0436530	2.8391240	2.6957610
H	-5.8210160	2.8425010	2.7373280
C	-6.1357830	6.6371630	2.5016430
H	-6.2138750	7.6481780	2.9157240
H	-7.0481600	6.0838390	2.7477730
H	-5.2862050	6.1285140	2.9680970
C	-8.3865140	2.0646890	-2.2346910
H	-8.4233300	3.1179490	-2.5351160
H	-7.4549780	1.6259070	-2.6072670
H	-9.2269650	1.5369710	-2.6960660
C	-9.4858390	6.7819090	-2.1446100
H	-8.6413820	7.1925010	-2.7063470
H	-9.5019950	5.6946870	-2.2691520
H	-10.4141390	7.1888310	-2.5618720
H	-2.1848770	-1.1173060	-0.3885470

