%nproc=24
%mem=64GB
#P PBE1PBE/6-31+G(d,p) opt freq  int=(grid=99590) scrf=(cpcm, solvent=water) EmpiricalDispersion=GD3

solv sp

0 1
     C	-1.6075620	-0.0359350	0.9891740
     C	-2.7524900	0.7005820	0.2706540
     O	-2.7922410	1.9476690	0.2741290
     N	-3.6705040	-0.0991400	-0.2923500
     H	-3.4826140	-1.1161530	-0.3791120
     C	-4.8609320	0.4029710	-0.9712330
     C	-6.0833330	-0.3899510	-0.4733550
     O	-6.1817740	-1.6084870	-0.7367030
     N	-6.9751200	0.3319630	0.2119350
     H	-6.7720330	1.3291280	0.4258700
     N	-0.3394400	0.3932180	0.4080770
     H	-0.1549000	1.4160440	0.4008880
     C	0.6333210	-0.4499430	0.0403660
     O	0.5883360	-1.6942670	0.1608430
     C	1.8550150	0.2194920	-0.6155010
     N	3.0557060	-0.1599470	0.1199250
     H	3.2495930	-1.1778770	0.1848750
     H	-1.7033980	-1.1114660	0.8286290
     H	-4.9757120	1.4545440	-0.7031770
     H	1.7542220	1.3043680	-0.5529030
     C	5.1230580	0.1084520	1.3727150
     C	3.9598390	0.7226800	0.5730740
     O	3.9108290	1.9558280	0.4062270
     N	6.3540590	0.2821410	0.6056630
     H	6.6068200	1.2347840	0.2948540
     C	7.2081840	-0.7148960	0.3297720
     O	7.1014730	-1.8973150	0.7126580
     C	8.3754490	-0.3060370	-0.5732800
     N	9.4968180	-1.1928830	-0.3034930
     H	9.2638450	-2.1042370	0.0750080
     C	10.7787250	-0.8191430	-0.5141110
     O	11.0873850	0.3036460	-0.9501260
     H	4.9593940	-0.9631550	1.4960810
     H	8.6797690	0.7099380	-0.3220230
     C	11.8466870	-1.8461980	-0.1918360
     H	11.4406230	-2.7807740	0.2059710
     H	12.4144160	-2.0583880	-1.1031690
     H	12.5404270	-1.4134720	0.5353790
     C	-8.2721070	-0.1509330	0.6655800
     H	-8.3744630	-1.1970140	0.3710910
     C	-9.3747290	0.6976570	-0.0079920
     H	-10.4406120	-1.0307940	-0.3332180
     C	-11.6119510	0.6309240	-1.0188520
     H	-12.5256310	0.3819330	-0.4657890
     H	-11.4627290	1.7121410	-0.9990120
     H	-11.7366380	0.3065920	-2.0593960
     O	-9.2596340	1.9275770	-0.1184900
     N	-10.4547280	-0.0060530	-0.4116690
     C	-8.3944310	-0.0246510	2.1947810
     H	-7.6330260	-0.6403580	2.6848010
     H	-8.2537810	1.0169220	2.5006860
     H	-9.3828700	-0.3573880	2.5295150
     C	-4.7375150	0.2662010	-2.4963840
     H	-3.8799820	0.8464810	-2.8514600
     H	-4.5992000	-0.7832760	-2.7713990
     H	-5.6400240	0.6436400	-2.9900220
     C	-1.6641250	0.2745280	2.4943880
     H	-0.8669460	-0.2655260	3.0150910
     H	-1.5375090	1.3480140	2.6620400
     H	-2.6271920	-0.0350520	2.9151110
     C	1.9417500	-0.2126030	-2.0892310
     H	2.7875440	0.2868650	-2.5723380
     H	2.0817160	-1.2954560	-2.1587990
     H	1.0255090	0.0586430	-2.6251290
     C	5.2221510	0.7788200	2.7499310
     H	5.3971510	1.8525270	2.6369470
     H	4.2930340	0.6360020	3.3125260
     H	6.0449810	0.3366850	3.3203430
     C	7.9432820	-0.3488680	-2.0529940
     H	7.5841520	-1.3479830	-2.3211290
     H	7.1441460	0.3754260	-2.2364530
     H	8.7942860	-0.0928250	-2.6907400
     O	9.8378070	2.7046590	-1.3653560
     H	10.4758450	3.3634150	-1.0633500
     H	10.2911830	1.8328100	-1.2708230
     O	2.3931820	4.0601610	-0.3644400
     H	2.7347670	4.7973380	0.1577960
     H	2.9627620	3.2886520	-0.1315180
     O	-4.4559500	4.0996930	-0.0795930
     H	-4.1654920	4.7146430	0.6065020
     H	-3.8622660	3.3187250	0.0057850
     O	-7.8752150	-3.6562210	-1.0135730
     H	-7.7647910	-3.9030670	-1.9405880
     H	-7.2552450	-2.8989520	-0.8649320
     O	-1.0421450	-3.8663220	0.3068360
     H	-0.6203120	-4.4726670	-0.3158580
     H	-0.4701890	-3.0635830	0.3143720
     O	5.2557530	-3.5341460	1.8910650
     H	5.6389490	-4.4158210	1.9763430
     H	5.9588690	-2.9646170	1.5012320
     O	7.3142290	2.8069340	-0.3202420
     H	6.7163620	3.2981070	-0.8973320
     H	8.2126650	2.8503120	-0.7294920
     O	0.0216040	3.1287660	0.5355230
     H	-0.7851670	3.4394730	0.1035030
     H	0.8025190	3.5891020	0.1414430
     O	-6.7898330	2.9935440	0.8642300
     H	-7.6421910	3.1024170	0.4077280
     H	-6.0930730	3.5258920	0.4200840
	O	-10.3369180	-2.8623390	-0.2930430
	H	-10.5881310	-3.3950240	0.4714190
	H	-9.4575960	-3.2127170	-0.5905010
	O	-3.3037740	-2.8052040	-0.7306230
	H	-4.1555580	-3.1865070	-0.4796730
	H	-2.5764430	-3.3226540	-0.3079700
	O	3.2737460	-2.9228000	0.1380440
	H	2.3528450	-2.9827590	0.4346620
	H	3.8651740	-3.2969820	0.8311960

