%nproc=24
%mem=64GB
#P PBE1PBE/6-31+G(d,p) opt int=(grid=99590) freq EmpiricalDispersion=GD3

solv sp

0 1
N                5.268987            3.463073            0.875994
H                5.631362            2.515284            0.826094
C                3.269082            2.576235           -0.131943
C                4.021156            3.759423            0.470526
O                3.527062            4.882685            0.522209
N                1.849148            2.812358            0.011835
H                1.513081            3.775032            0.177655
C                0.961921            1.847141           -0.152453
O                1.274890            0.670296           -0.452485
C               -0.492592            2.265346            0.018751
N               -1.345173            1.198732           -0.463776
H               -1.226724            0.279746           -0.040301
C               -2.299530            1.388136           -1.371391
O               -2.547547            2.493517           -1.896980
H                3.530563            1.667074            0.416152
H               -0.661484            3.128240           -0.627360
C               -3.090214            0.174773           -1.854052
H               -2.678629           -0.014124           -2.853705
C                3.672926            2.406278           -1.597904
H                3.467626            3.323756           -2.157500
H                4.737295            2.168999           -1.666774
H                3.105428            1.581726           -2.036548
C               -0.831842            2.667079            1.453220
H               -0.672908            1.840168            2.146253
H               -0.220927            3.519519            1.756988
H               -1.883008            2.964912            1.496851
C                3.827085           -1.374600           -0.583252
N                5.136747           -1.608124            0.001728
H                5.394341           -2.576724            0.134759
C                5.974721           -0.621197            0.377405
O                5.701005            0.572872            0.224343
C                7.280489           -1.052005            0.999578
C                2.891082           -2.464991           -0.058210
O                3.271880           -3.645689           -0.073567
N                1.686083           -2.083333            0.370172
H                1.480716           -1.101944            0.391476
C                0.715782           -3.009731            0.906862
C               -0.645660           -2.347164            0.898058
O               -0.773860           -1.165335            1.255574
N               -1.665622           -3.105018            0.531907
H               -1.460592           -3.989225            0.045183
H                3.482552           -0.389369           -0.264317
H                0.684327           -3.894367            0.267538
C               -3.045188           -2.663635            0.685023
H               -3.649417           -3.298201            0.029510
C                3.876844           -1.436015           -2.110684
H                4.222758           -2.421461           -2.437593
H                2.883919           -1.252084           -2.532838
H                4.567280           -0.673403           -2.481157
C                1.077978           -3.415680            2.331557
H                2.045458           -3.921417            2.317998
H                1.143457           -2.531991            2.972590
H                0.327298           -4.102463            2.731163
H                7.400257           -2.136235            1.060736
C               -3.543051           -2.806779            2.113703
H               -4.590985           -2.503420            2.155956
H               -3.459713           -3.851528            2.424975
H               -2.968298           -2.183922            2.803488
C               -3.227713           -1.233033            0.168734
C               -4.574659            0.495385           -2.007989
H               -4.698170            1.355455           -2.668937
H               -5.088278           -0.368527           -2.434644
H               -5.034697            0.712437           -1.043282
O               -3.687225           -0.343797            0.880428
N               -2.840322           -1.038753           -1.106010
H               -2.445292           -1.816883           -1.629257
H                8.103188           -0.630841            0.415507
H                7.340198           -0.628320            2.005538
H                5.843167            4.210884            1.230513
O                1.791197           -5.702657           -1.106879
H                2.161571           -6.551796           -0.858270
H                2.367215           -5.017108           -0.710410
O                0.571214            5.317539            0.252381
H                1.310408            5.908399            0.072140
H               -0.141239            5.476931           -0.398479
O               -1.704364            5.237062           -1.381667
H               -2.475863            5.297226           -0.801720
H               -1.822994            4.373989           -1.803946
O               -0.884898           -5.013896           -1.318972
H                0.022689           -5.371848           -1.295824
H               -0.882437           -4.312383           -1.991641
O               -6.032968           -2.024899           -0.055634
H               -6.332193           -1.156201            0.283773
H               -6.796882           -2.390669           -0.508438
O                0.514631           -0.596614           -2.692378
H                0.697773           -0.147332           -1.831701
H                0.494620            0.102315           -3.352333
O               -4.900823            1.995587            1.479136
H               -4.685264            2.762892            0.920011
H               -4.289723            1.280232            1.223694
O               -4.241562            4.031217           -0.421491
H               -3.802274            3.446071           -1.075031
H               -5.046548            4.351781           -0.838196
O               -1.202408           -2.671415           -2.890925
H               -1.386912           -2.820021           -3.822506
H               -0.515125           -1.961354           -2.848597
O                1.044631            0.069326            3.021377
H                0.417705           -0.356325            2.412614
H                0.454294            0.420214            3.699486
O               -7.020077            0.443535            0.832523
H               -6.315903            1.082906            1.095235
H               -7.599617            0.368299            1.595552
O               -2.037503            0.162069            3.449652
H               -2.883588            0.619115            3.423692
H               -1.961718           -0.255676            2.578839

