%nproc=24
%mem=64GB
#P PBE1PBE/6-31+G(d,p) opt int=(grid=99590) freq EmpiricalDispersion=GD3

solv sp

0 1
N	4.9641820	2.8790590	-0.7614700
H	4.1758970	3.4900460	-0.5565790
C	3.5383330	0.9955130	-0.1501120
C	4.8735720	1.5238190	-0.7291130
O	5.7858460	0.7753550	-1.0921140
N	3.1401540	-0.2405690	-0.8369270
H	3.8492530	-0.9980320	-0.9488410
C	1.9019750	-0.4289690	-1.3047210
O	1.0014590	0.4345870	-1.3084330
C	1.6006070	-1.8581960	-1.8252320
N	0.5429350	-2.4379950	-0.9628750
H	-0.4119820	-2.1530420	-1.1694750
C	0.8056500	-3.0952570	0.1796760
O	1.9461280	-3.3382930	0.6078440
H	2.7486430	1.7326630	-0.3264830
H	2.4921220	-2.4886570	-1.7370630
C	-0.4192510	-3.5875470	1.0074450
H	-0.3402500	-3.0906010	1.9816600
C	3.6998870	0.8252270	1.3417850
H	4.4940870	0.0766010	1.5918190
H	3.9793760	1.8075570	1.7948590
H	2.7377530	0.4816540	1.8045490
C	1.1574840	-1.7771180	-3.2614730
H	0.2798330	-1.0881900	-3.3667740
H	1.9995060	-1.3887610	-3.8842080
H	0.8533540	-2.7820510	-3.6472080
C	0.2199720	3.3126170	-0.3609010
N	0.3858890	4.7678720	-0.3035150
H	-0.4598900	5.3253610	-0.2443810
C	1.6194650	5.3467230	-0.2849480
O	2.6734630	4.6970250	-0.3165700
C	1.6539350	6.8528780	-0.2366340
C	-1.2210630	3.0239390	-0.8384370
O	-2.1147210	3.8819220	-0.6906320
N	-1.3928970	1.8068800	-1.3837060
H	-0.5687590	1.1917570	-1.4710610
C	-2.6937730	1.3057670	-1.8655190
C	-2.7725980	-0.1782990	-1.4440430
O	-1.9939310	-1.0150670	-1.9568830
N	-3.6545980	-0.4693770	-0.4813570
H	-4.3191470	0.2624710	-0.1250720
H	0.9268080	2.9119310	-1.0950240
H	-3.4794680	1.8871590	-1.3725700
C	-3.7584160	-1.8249090	0.0970090
H	-4.4954460	-1.7369520	0.9075870
C	0.4663400	2.5932900	0.9418050
H	-0.3204080	2.8138640	1.7030430
H	0.4877650	1.4867360	0.7550070
H	1.4610610	2.8844300	1.3649000
C	-2.8758950	1.3964460	-3.3599700
H	-2.7764880	2.4535020	-3.7074140
H	-2.1176750	0.7718010	-3.8940940
H	-3.8954310	1.0271220	-3.6296000
H	1.1488870	7.2304570	0.6851510
C	-4.2424230	-2.8745960	-0.8664700
H	-4.2860900	-3.8741820	-0.3678490
H	-5.2715070	-2.6195090	-1.2230530
H	-3.5747980	-2.9543660	-1.7633790
C	-2.4180790	-2.1541910	0.8058990
C	-0.2703630	-5.0750810	1.2067640
H	0.7644220	-5.2906090	1.5750900
H	-1.0050160	-5.4481190	1.9612280
H	-0.4317960	-5.6344880	0.2515740
O	-2.0235050	-1.3884290	1.7189050
N	-1.7198980	-3.2284410	0.4178330
H	-2.0404960	-3.8241760	-0.3662560
H	2.7194170	7.1896760	-0.2268940
H	1.1470600	7.2873460	-1.1320880
H	5.8294410	3.2793800	-1.0991450
O	-5.4703080	1.3228250	0.4327040
H	-5.2953470	2.2786790	0.2740720
H	-5.6521730	1.2207990	1.3949150
O	5.1526540	-2.0521700	-1.3258710
H	5.2575120	-2.5832130	-0.4950720
H	5.7422190	-1.2801320	-1.2573470
O	-4.7727620	3.9244020	-0.0984920
H	-3.8167940	3.9601420	-0.3330930
H	-5.2381410	4.4152090	-0.7877680
O	4.9240270	-3.4393130	0.9756550
H	3.9724550	-3.5854260	0.8472700
H	4.9833210	-2.8081820	1.7331290
O	-2.2277010	-4.9224600	-1.7897870
H	-2.0337110	-4.3594920	-2.5812610
H	-1.6561020	-5.6982900	-1.8608050
O	2.1705230	-2.0668900	3.2137250
H	1.6132360	-1.2770300	3.0082980
H	2.1222880	-2.6227520	2.4138480
O	4.8115220	-1.6520830	3.0697680
H	3.8320030	-1.7172520	3.2322520
H	5.2387630	-1.9274520	3.8908840
O	0.4957260	-0.0458700	2.4466020
H	0.1571750	0.6696160	3.0289020
H	-0.2990030	-0.4729820	2.0823830
O	-3.1225520	0.0606540	3.6646790
H	-2.7948670	-0.4456100	2.8717330
H	-3.0527270	-0.5589570	4.4054910
O	-0.9312640	1.7706600	3.9938360
H	-1.7928360	1.3072480	3.9229530
H	-1.0933680	2.6935970	3.7592890
O	-5.7105330	0.8978900	3.1408040
H	-4.7996680	0.6372660	3.4036840
H	-5.9499690	1.6514030	3.6955400
O	-1.6943980	-3.0888350	-3.6967780
H	-1.8116780	-2.2537270	-3.1922920
H	-2.1825600	-2.9848210	-4.5234190

