%nproc=24
%mem=64GB
#P PBE1PBE/6-31+G(d,p) opt int=(grid=99590) freq EmpiricalDispersion=GD3 scrf=(cpcm, solvent=water)

solv sp

0 1
N	-4.8708310	2.9571650	-1.3879530
H	-5.2780830	2.1200990	-0.9736430
C	-3.2602820	2.9848610	0.4612230
C	-3.7109970	3.5037960	-0.9367330
O	-3.0807230	4.3672310	-1.5498880
N	-1.8010750	3.0885280	0.5574120
H	-1.3772580	4.0244210	0.3676680
C	-0.9920190	2.0238090	0.6483770
O	-1.3765730	0.8545460	0.8704570
C	0.4923360	2.3814700	0.4036660
N	1.4037860	1.4363390	1.0795710
H	1.0923790	0.4760280	1.2296310
C	2.6860550	1.8073850	1.2800820
O	3.1148900	2.9354540	0.9676910
H	-3.5321920	1.9282950	0.5658470
H	0.6750560	3.3677600	0.8415680
C	3.6470510	0.8520140	2.0499050
H	3.6120890	1.2290170	3.0823410
C	-3.9947510	3.7789490	1.5133520
H	-3.7639560	4.8698780	1.4331340
H	-5.0952750	3.6353110	1.3823090
H	-3.7116610	3.4340380	2.5377200
C	0.7184080	2.5051660	-1.0843850
H	0.4911440	1.5528230	-1.6236060
H	0.0739010	3.3256060	-1.4900870
H	1.7858820	2.7815910	-1.2937470
C	-3.9921820	-1.5150540	0.6528690
N	-5.2863330	-1.7990440	0.0253790
H	-5.4931060	-2.7711010	-0.1775690
C	-6.0759600	-0.8170070	-0.4998700
O	-5.8227830	0.3907700	-0.3957230
C	-7.3095800	-1.2765810	-1.2332330
C	-2.9346640	-2.4518200	0.0249600
O	-3.2400220	-3.6064250	-0.3288350
N	-1.7054280	-1.9147590	-0.0530840
H	-1.5538950	-0.9480000	0.2541120
C	-0.5220990	-2.6781470	-0.4583520
C	0.5815550	-2.4094390	0.5814080
O	0.4878440	-1.4508930	1.3732180
N	1.6535660	-3.2107140	0.5681240
H	1.6335730	-4.0801280	-0.0110420
H	-3.7469510	-0.4711690	0.4326020
H	-0.7756890	-3.7406900	-0.4407810
C	2.7550860	-2.8802470	1.4942050
H	2.3682240	-2.8817110	2.5232490
C	-3.9654870	-1.7062240	2.1495350
H	-4.1443760	-2.7726070	2.4295590
H	-2.9639900	-1.3931580	2.5438240
H	-4.7479480	-1.0765600	2.6394390
C	-0.0064410	-2.3340820	-1.8341630
H	-0.7922800	-2.5361560	-2.6030010
H	0.2861900	-1.2557700	-1.9033610
H	0.8900380	-2.9648730	-2.0725080
H	-7.9606190	-1.8966640	-0.5703880
C	3.9033630	-3.8479450	1.3901370
H	4.6759670	-3.5872770	2.1544630
H	3.5605580	-4.8960760	1.5737950
H	4.3773640	-3.8012230	0.3778790
C	3.2729440	-1.4539670	1.1559740
C	5.0457190	1.0611430	1.5319210
H	5.3037320	2.1481420	1.6089440
H	5.7825360	0.4736930	2.1316050
H	5.1387500	0.7579420	0.4594950
O	3.7016950	-1.2107470	0.0065650
N	3.2271210	-0.5568190	2.1526330
H	2.7019430	-0.7862630	3.0090960
H	-7.8876950	-0.3802370	-1.5667300
H	-7.0279990	-1.8786650	-2.1311640
H	-5.1989080	3.2646910	-2.2943310
O	-1.6372190	-5.7953670	-1.1059300
H	-1.9573060	-6.5524100	-0.5982620
H	-2.2599930	-5.0611440	-0.9072710
O	1.2302950	-5.4410120	-1.0023110
H	1.5818850	-5.2734050	-1.9069440
H	0.2740830	-5.6308410	-1.0948910
O	1.9445910	5.3600610	-0.5027740
H	2.3244340	4.7163140	0.1195880
H	2.3222180	5.0948570	-1.3778800
O	-0.7404840	5.5396100	-0.1181480
H	0.2259850	5.5440810	-0.3420360
H	-1.2462200	5.5361610	-0.9459210
O	5.0084960	3.1324080	-1.2074030
H	4.5541950	3.1420720	-0.3437870
H	4.9251320	2.2029660	-1.5240660
O	3.2377580	4.4469470	-2.7276440
H	3.9553400	3.9718560	-2.2228630
H	3.6868480	5.1498510	-3.2153980
O	4.3717060	0.5744790	-2.0383220
H	3.4655290	0.7313650	-2.3832860
H	4.2234590	0.0788850	-1.2085450
O	3.2566360	-2.1142250	-2.5540920
H	4.0287270	-1.5976420	-2.8454550
H	3.3040300	-2.0273170	-1.5712960
O	1.7539970	0.2243660	-2.9605910
H	1.5176930	0.4821030	-3.8611860
H	2.0637130	-0.7052800	-2.9913670
O	2.3767360	-4.6100430	-3.3509920
H	1.8890110	-4.4930250	-4.1758110
H	2.7820150	-3.7392230	-3.1416260
O	1.6154680	-0.5643730	4.4428730
H	0.6574510	-0.4778230	4.2023710
H	1.6433670	-0.8855530	5.3524120
O	-0.9339390	-0.5289410	3.4840880
H	-1.2852890	0.2978940	3.1178710
H	-0.5947020	-0.9798870	2.6815900

